1000
400 400
1 320 25
2 320 670
3 320 418
4 320 885
5 320 82
6 320 805
7 319 97
8 319 922
9 319 398
10 319 431
11 319 739
12 319 481
13 318 536
14 318 320
15 318 626
16 318 240
17 318 789
18 318 917
19 318 743
20 317 625
21 317 306
22 317 9
23 317 795
24 317 567
25 316 181
26 316 756
27 315 682
28 315 567
29 314 310
30 314 839
31 313 36
32 313 694
33 313 868
34 313 961
35 312 997
36 312 661
37 311 962
38 310 970
39 310 819
40 309 665
41 309 369
42 309 937
43 309 730
44 309 148
45 309 979
46 309 11
47 308 905
48 308 456
49 308 96
50 308 772
51 308 977
52 307 762
53 307 236
54 307 470
55 307 514
56 307 716
57 307 813
58 306 612
59 306 79
60 305 913
61 305 748
62 305 362
63 305 314
64 304 493
65 304 657
66 304 17
67 304 294
68 304 575
69 304 659
70 303 280
71 303 763
72 303 346
73 303 495
74 303 45
75 302 629
76 302 47
77 302 310
78 301 577
79 301 791
80 301 601
81 301 212
82 300 184
83 300 804
84 300 883
85 300 440
86 300 571
87 300 321
88 300 65
89 299 806
90 299 873
91 299 126
92 299 664
93 298 29
94 298 542
95 298 763
96 297 796
97 297 204
98 297 655
99 297 911
100 297 350
101 297 368
102 296 920
103 296 645
104 296 982
105 296 171
106 295 327
107 295 87
108 295 772
109 294 369
110 294 378
111 294 861
112 294 994
113 294 490
114 294 362
115 294 558
116 293 721
117 293 648
118 293 684
119 292 544
120 292 490
121 292 603
122 291 964
123 291 586
124 290 916
125 290 676
126 290 189
127 290 661
128 290 697
129 290 805
130 289 245
131 289 295
132 288 408
133 288 343
134 287 399
135 287 24
136 287 748
137 287 827
138 286 415
139 286 886
140 286 59
141 285 4
142 285 667
143 284 77
144 284 391
145 284 254
146 284 334
147 283 148
148 283 372
149 283 24
150 283 85
151 283 854
152 283 108
153 282 492
154 282 122
155 282 810
156 282 283
157 281 242
158 281 846
159 281 136
160 280 244
161 280 339
162 280 382
163 280 340
164 280 136
165 279 92
166 279 689
167 279 37
168 278 285
169 278 975
170 278 291
171 278 286
172 278 356
173 277 274
174 277 201
175 277 690
176 276 713
177 276 870
178 276 973
179 275 371
180 274 221
181 274 439
182 274 789
183 274 488
184 274 690
185 273 645
186 273 641
187 272 38
188 272 759
189 272 420
190 272 829
191 272 300
192 272 618
193 272 232
194 272 527
195 272 184
196 271 607
197 271 906
198 271 549
199 271 412
200 271 340
201 270 676
202 270 695
203 270 75
204 270 661
205 270 863
206 269 836
207 269 258
208 268 727
209 268 506
210 268 1
211 267 564
212 267 315
213 266 936
214 266 144
215 266 194
216 266 81
217 266 729
218 265 813
219 265 138
220 265 153
221 264 781
222 264 24
223 264 720
224 263 995
225 263 266
226 263 966
227 263 21
228 262 220
229 262 445
230 262 140
231 261 505
232 261 634
233 261 898
234 261 727
235 261 350
236 261 934
237 261 275
238 260 933
239 260 262
240 259 414
241 258 473
242 258 589
243 257 204
244 257 498
245 257 844
246 257 539
247 256 850
248 256 980
249 256 909
250 256 823
251 256 14
252 255 432
253 255 96
254 255 902
255 255 619
256 255 61
257 255 515
258 255 228
259 255 124
260 255 522
261 255 304
262 254 144
263 254 111
264 254 750
265 254 956
266 254 852
267 254 714
268 254 356
269 254 336
270 253 329
271 253 535
272 253 388
273 252 993
274 252 129
275 252 329
276 252 732
277 252 74
278 251 287
279 251 486
280 251 990
281 251 360
282 251 617
283 250 943
284 250 640
285 250 172
286 250 812
287 250 944
288 249 611
289 249 842
290 249 387
291 248 130
292 247 668
293 247 879
294 247 849
295 247 618
296 247 333
297 246 773
298 246 540
299 246 912
300 246 333
301 246 478
302 246 416
303 246 226
304 245 894
305 245 276
306 245 867
307 245 308
308 245 412
309 245 1
310 245 204
311 245 948
312 245 170
313 244 223
314 244 508
315 244 541
316 244 181
317 244 939
318 244 615
319 244 493
320 244 108
321 243 434
322 242 465
323 242 522
324 242 474
325 242 19
326 242 229
327 241 638
328 241 855
329 241 46
330 241 237
331 240 599
332 240 572
333 240 597
334 238 315
335 238 629
336 238 200
337 238 320
338 238 852
339 238 46
340 238 763
341 237 85
342 237 623
343 236 915
344 236 937
345 236 445
346 236 746
347 236 445
348 236 87
349 235 590
350 235 526
351 235 321
352 235 13
353 235 36
354 234 675
355 234 578
356 234 742
357 234 158
358 233 683
359 233 944
360 233 641
361 233 586
362 233 573
363 233 740
364 233 456
365 233 42
366 233 84
367 233 81
368 232 893
369 232 186
370 232 191
371 231 148
372 230 697
373 230 111
374 230 49
375 230 757
376 230 576
377 230 840
378 230 55
379 229 905
380 229 216
381 229 670
382 229 338
383 229 987
384 229 48
385 228 800
386 228 709
387 228 118
388 227 675
389 227 702
390 227 96
391 227 866
392 226 571
393 226 333
394 226 487
395 225 961
396 225 36
397 225 242
398 225 132
399 224 422
400 224 881
401 224 332
402 224 693
403 224 739
404 223 356
405 223 307
406 223 656
407 223 277
408 222 725
409 222 494
410 222 950
411 221 641
412 221 899
413 221 164
414 221 610
415 221 100
416 221 141
417 221 318
418 221 701
419 221 842
420 220 262
421 219 348
422 219 0
423 219 692
424 219 745
425 219 365
426 219 528
427 219 979
428 218 169
429 218 721
430 218 976
431 218 345
432 218 789
433 217 933
434 217 650
435 217 486
436 217 884
437 217 100
438 217 503
439 217 62
440 216 139
441 216 763
442 216 832
443 216 708
444 216 521
445 215 339
446 215 954
447 215 788
448 215 844
449 215 764
450 214 269
451 214 232
452 214 308
453 214 216
454 214 797
455 214 11
456 213 768
457 213 669
458 213 164
459 212 15
460 212 747
461 212 117
462 212 835
463 212 58
464 211 367
465 211 763
466 211 510
467 211 931
468 210 703
469 210 50
470 210 944
471 210 716
472 210 262
473 210 126
474 210 947
475 209 67
476 208 403
477 207 945
478 207 8
479 207 305
480 206 700
481 206 373
482 206 270
483 206 556
484 205 312
485 205 157
486 204 96
487 204 613
488 204 675
489 203 632
490 203 640
491 203 769
492 202 339
493 202 626
494 202 241
495 202 65
496 202 718
497 202 445
498 202 123
499 202 24
500 201 498
501 201 646
502 200 107
503 200 884
504 200 810
505 199 411
506 199 618
507 199 648
508 198 52
509 198 836
510 198 233
511 198 668
512 198 973
513 197 977
514 197 682
515 197 47
516 196 893
517 196 459
518 196 247
519 196 387
520 195 530
521 195 282
522 195 185
523 195 622
524 195 579
525 194 205
526 194 507
527 194 496
528 193 407
529 193 506
530 193 95
531 193 585
532 193 494
533 192 917
534 192 48
535 192 442
536 192 133
537 191 130
538 191 222
539 190 575
540 190 299
541 190 646
542 189 241
543 189 436
544 189 29
545 189 76
546 189 93
547 189 566
548 189 215
549 189 393
550 189 366
551 188 561
552 188 649
553 187 266
554 187 650
555 187 550
556 187 88
557 187 205
558 187 360
559 187 469
560 186 950
561 186 146
562 186 240
563 186 498
564 185 132
565 185 188
566 185 875
567 184 867
568 184 656
569 184 619
570 184 142
571 184 703
572 184 329
573 184 41
574 184 400
575 183 915
576 183 851
577 183 839
578 183 168
579 183 928
580 183 264
581 182 683
582 182 804
583 182 863
584 182 93
585 182 728
586 182 277
587 181 93
588 181 533
589 181 896
590 181 777
591 180 167
592 180 104
593 180 386
594 180 878
595 179 989
596 179 352
597 178 846
598 178 775
599 178 704
600 178 144
601 177 441
602 177 165
603 177 85
604 177 820
605 177 735
606 176 889
607 176 360
608 176 186
609 176 730
610 176 116
611 175 954
612 175 312
613 174 209
614 173 589
615 173 332
616 173 691
617 172 216
618 172 198
619 172 951
620 171 474
621 171 459
622 171 899
623 171 821
624 171 383
625 171 0
626 171 835
627 171 198
628 170 694
629 170 602
630 170 75
631 170 714
632 170 713
633 169 785
634 169 72
635 169 731
636 169 748
637 169 725
638 169 175
639 169 698
640 168 447
641 168 194
642 168 355
643 168 176
644 168 734
645 167 270
646 167 142
647 167 741
648 167 979
649 166 466
650 166 866
651 166 839
652 166 170
653 165 550
654 165 328
655 165 489
656 165 597
657 164 230
658 164 221
659 164 71
660 164 986
661 164 201
662 163 176
663 163 503
664 163 80
665 163 429
666 163 291
667 163 929
668 163 841
669 163 832
670 162 161
671 161 908
672 161 575
673 161 897
674 161 98
675 161 49
676 161 291
677 161 96
678 161 586
679 161 327
680 160 907
681 160 571
682 160 474
683 160 313
684 159 549
685 159 302
686 159 747
687 159 143
688 159 255
689 159 934
690 158 649
691 158 865
692 157 48
693 157 528
694 156 709
695 156 2
696 156 438
697 156 44
698 156 47
699 155 539
700 155 469
701 155 477
702 155 687
703 155 921
704 153 243
705 153 859
706 153 940
707 153 872
708 153 141
709 153 865
710 153 704
711 152 734
712 152 631
713 152 780
714 152 149
715 152 606
716 151 749
717 151 935
718 150 715
719 150 117
720 150 365
721 150 273
722 150 342
723 150 527
724 149 550
725 149 139
726 149 950
727 149 223
728 149 943
729 148 632
730 148 68
731 147 943
732 147 769
733 147 633
734 147 53
735 146 892
736 146 196
737 146 253
738 146 579
739 146 426
740 146 944
741 146 873
742 146 243
743 146 369
744 145 738
745 145 128
746 144 732
747 144 328
748 144 868
749 144 16
750 144 491
751 144 783
752 144 498
753 143 318
754 143 169
755 143 374
756 143 58
757 142 652
758 142 37
759 141 328
760 141 469
761 141 460
762 141 88
763 141 824
764 141 454
765 140 516
766 139 657
767 139 827
768 138 616
769 138 758
770 138 693
771 138 168
772 137 527
773 137 591
774 137 229
775 137 364
776 137 507
777 136 950
778 136 447
779 136 912
780 136 939
781 135 210
782 135 908
783 135 81
784 135 388
785 135 587
786 134 269
787 133 161
788 132 114
789 132 332
790 132 590
791 132 930
792 132 691
793 132 406
794 131 255
795 131 421
796 131 233
797 131 153
798 130 895
799 130 754
800 130 343
801 130 673
802 129 164
803 129 918
804 129 938
805 129 332
806 129 687
807 129 372
808 129 89
809 128 515
810 128 342
811 128 780
812 128 694
813 128 577
814 128 600
815 127 166
816 126 861
817 126 920
818 126 129
819 126 117
820 125 331
821 125 669
822 125 781
823 125 219
824 125 348
825 124 725
826 124 982
827 124 494
828 124 30
829 124 438
830 124 674
831 123 396
832 123 806
833 122 272
834 122 191
835 122 893
836 122 163
837 121 181
838 121 839
839 120 368
840 120 21
841 120 27
842 119 169
843 119 743
844 119 43
845 118 389
846 118 658
847 118 800
848 118 263
849 117 606
850 117 792
851 117 473
852 117 109
853 116 817
854 116 793
855 116 137
856 116 231
857 116 107
858 115 561
859 115 256
860 115 283
861 114 662
862 114 632
863 114 992
864 114 702
865 114 376
866 114 225
867 113 628
868 113 614
869 113 774
870 113 870
871 112 420
872 111 655
873 111 879
874 110 136
875 110 329
876 110 799
877 110 370
878 110 271
879 110 862
880 110 262
881 109 353
882 109 262
883 109 737
884 109 35
885 109 290
886 109 625
887 108 831
888 108 271
889 108 447
890 107 770
891 107 160
892 106 205
893 106 156
894 106 193
895 105 238
896 105 668
897 105 227
898 105 73
899 105 828
900 104 751
901 104 608
902 104 831
903 104 985
904 104 882
905 104 946
906 104 596
907 104 896
908 103 183
909 103 44
910 103 442
911 103 267
912 103 821
913 102 920
914 102 497
915 102 389
916 102 804
917 101 742
918 101 374
919 101 746
920 100 267
921 100 639
922 100 617
923 100 420
924 99 532
925 99 742
926 99 52
927 98 132
928 98 883
929 98 869
930 97 761
931 97 857
932 97 164
933 96 211
934 96 364
935 96 380
936 96 820
937 96 61
938 95 402
939 95 164
940 95 503
941 94 716
942 94 597
943 94 798
944 94 806
945 93 251
946 93 903
947 93 324
948 92 564
949 92 686
950 91 971
951 91 713
952 91 245
953 91 2
954 91 194
955 91 521
956 90 838
957 90 71
958 90 110
959 90 681
960 89 50
961 89 734
962 89 377
963 89 82
964 89 888
965 89 802
966 89 312
967 88 349
968 88 86
969 87 528
970 87 18
971 87 807
972 87 802
973 86 157
974 86 238
975 86 327
976 86 136
977 85 545
978 85 288
979 85 861
980 85 292
981 85 120
982 84 880
983 84 235
984 84 535
985 83 254
986 83 224
987 83 673
988 83 744
989 82 772
990 82 507
991 82 452
992 81 770
993 81 124
994 81 140
995 81 713
996 81 409
997 80 99
998 80 835
999 80 552
1000 80 393
